  12   5
  16
   0   0   0   0
-621   0
 2.00000E+01 1.90000E+01 1.80000E+01 1.79000E+01 1.78000E+01 1.77000E+01
 1.76000E+01 1.75000E+01 1.74000E+01 1.73000E+01 1.72000E+01 1.71000E+01
 1.70000E+01 1.69000E+01 1.68000E+01 1.67000E+01 1.66000E+01 1.65000E+01
 1.64000E+01 1.63000E+01 1.62000E+01 1.61000E+01 1.60000E+01 1.59000E+01
 1.58000E+01 1.57000E+01 1.56000E+01 1.55000E+01 1.54000E+01 1.53000E+01
 1.52000E+01 1.51000E+01 1.50000E+01 1.49000E+01 1.48000E+01 1.47000E+01
 1.46000E+01 1.45000E+01 1.44000E+01 1.43000E+01 1.42000E+01 1.41000E+01
 1.40000E+01 1.39000E+01 1.38000E+01 1.37000E+01 1.36000E+01 1.35000E+01
 1.34000E+01 1.33000E+01 1.32000E+01 1.31000E+01 1.30000E+01 1.29000E+01
 1.28000E+01 1.27000E+01 1.26000E+01 1.25000E+01 1.24000E+01 1.23000E+01
 1.22000E+01 1.21000E+01 1.20000E+01 1.19000E+01 1.18000E+01 1.17000E+01
 1.16000E+01 1.15000E+01 1.14000E+01 1.13000E+01 1.12000E+01 1.11000E+01
 1.10000E+01 1.09000E+01 1.08000E+01 1.07000E+01 1.06000E+01 1.05000E+01
 1.04000E+01 1.03000E+01 1.02000E+01 1.01000E+01 1.00000E+01 9.90000E+00
 9.80000E+00 9.70000E+00 9.60000E+00 9.50000E+00 9.40000E+00 9.30000E+00
 9.20000E+00 9.10000E+00 9.00000E+00 8.90000E+00 8.80000E+00 8.70000E+00
 8.60000E+00 8.50000E+00 8.40000E+00 8.30000E+00 8.20000E+00 8.10000E+00
 8.00000E+00 7.90000E+00 7.80000E+00 7.70000E+00 7.60000E+00 7.50000E+00
 7.40000E+00 7.30000E+00 7.20000E+00 7.10000E+00 7.00000E+00 6.90000E+00
 6.80000E+00 6.70000E+00 6.60000E+00 6.50000E+00 6.40000E+00 6.30000E+00
 6.20000E+00 6.10000E+00 6.00000E+00 5.90000E+00 5.80000E+00 5.70000E+00
 5.60000E+00 5.50000E+00 5.40000E+00 5.30000E+00 5.20000E+00 5.10000E+00
 5.00000E+00 4.90000E+00 4.80000E+00 4.70000E+00 4.60000E+00 4.50000E+00
 4.40000E+00 4.30000E+00 4.20000E+00 4.10000E+00 4.00000E+00 3.90000E+00
 3.80000E+00 3.70000E+00 3.60000E+00 3.50000E+00 3.40000E+00 3.30000E+00
 3.20000E+00 3.10000E+00 3.00000E+00 2.90000E+00 2.80000E+00 2.70000E+00
 2.60000E+00 2.50000E+00 2.40000E+00 2.30000E+00 2.20000E+00 2.10000E+00
 2.00000E+00 1.90000E+00 1.80000E+00 1.70000E+00 1.60000E+00 1.50000E+00
 1.40000E+00 1.30000E+00 1.20000E+00 1.10000E+00 1.00000E+00 9.60000E-01
 9.20000E-01 8.80000E-01 8.40000E-01 8.00000E-01 7.60000E-01 7.20000E-01
 6.90000E-01 6.60000E-01 6.30000E-01 6.00000E-01 5.75000E-01 5.50000E-01
 5.25000E-01 5.00000E-01 4.75000E-01 4.50000E-01 4.25000E-01 4.00000E-01
 3.80000E-01 3.60000E-01 3.40000E-01 3.20000E-01 3.00000E-01 2.80000E-01
 2.70000E-01 2.55000E-01 2.40000E-01 2.30000E-01 2.20000E-01 2.10000E-01
 2.00000E-01 1.90000E-01 1.80000E-01 1.70000E-01 1.60000E-01 1.50000E-01
 1.42500E-01 1.35000E-01 1.27500E-01 1.20000E-01 1.15000E-01 1.10000E-01
 1.05000E-01 1.00000E-01 9.60000E-02 9.20000E-02 8.80000E-02 8.40000E-02
 8.00000E-02 7.60000E-02 7.20000E-02 6.90000E-02 6.60000E-02 6.30000E-02
 6.00000E-02 5.75000E-02 5.50000E-02 5.25000E-02 5.00000E-02 4.75000E-02
 4.50000E-02 4.25000E-02 4.00000E-02 3.80000E-02 3.60000E-02 3.40000E-02
 3.20000E-02 3.00000E-02 2.80000E-02 2.70000E-02 2.55000E-02 2.40000E-02
 2.30000E-02 2.20000E-02 2.10000E-02 2.00000E-02 1.90000E-02 1.80000E-02
 1.70000E-02 1.60000E-02 1.50000E-02 1.42500E-02 1.35000E-02 1.27500E-02
 1.20000E-02 1.15000E-02 1.10000E-02 1.05000E-02 1.00000E-02 9.60000E-03
 9.20000E-03 8.80000E-03 8.40000E-03 8.00000E-03 7.60000E-03 7.20000E-03
 6.90000E-03 6.60000E-03 6.30000E-03 6.00000E-03 5.75000E-03 5.50000E-03
 5.25000E-03 5.00000E-03 4.75000E-03 4.50000E-03 4.25000E-03 4.00000E-03
 3.80000E-03 3.60000E-03 3.40000E-03 3.20000E-03 3.00000E-03 2.80000E-03
 2.70000E-03 2.55000E-03 2.40000E-03 2.30000E-03 2.20000E-03 2.10000E-03
 2.00000E-03 1.90000E-03 1.80000E-03 1.70000E-03 1.60000E-03 1.50000E-03
 1.42500E-03 1.35000E-03 1.27500E-03 1.20000E-03 1.15000E-03 1.10000E-03
 1.05000E-03 1.00000E-03 9.60000E-04 9.20000E-04 8.80000E-04 8.40000E-04
 8.00000E-04 7.60000E-04 7.20000E-04 6.90000E-04 6.60000E-04 6.30000E-04
 6.00000E-04 5.75000E-04 5.50000E-04 5.25000E-04 5.00000E-04 4.75000E-04
 4.50000E-04 4.25000E-04 4.00000E-04 3.80000E-04 3.60000E-04 3.40000E-04
 3.20000E-04 3.00000E-04 2.80000E-04 2.70000E-04 2.55000E-04 2.40000E-04
 2.30000E-04 2.20000E-04 2.10000E-04 2.00000E-04 1.90000E-04 1.80000E-04
 1.70000E-04 1.60000E-04 1.50000E-04 1.42500E-04 1.35000E-04 1.27500E-04
 1.20000E-04 1.15000E-04 1.10000E-04 1.05000E-04 1.00000E-04 9.60000E-05
 9.20000E-05 8.80000E-05 8.40000E-05 8.00000E-05 7.60000E-05 7.20000E-05
 6.90000E-05 6.60000E-05 6.30000E-05 6.00000E-05 5.75000E-05 5.50000E-05
 5.25000E-05 5.00000E-05 4.75000E-05 4.50000E-05 4.25000E-05 4.00000E-05
 3.80000E-05 3.60000E-05 3.40000E-05 3.20000E-05 3.00000E-05 2.80000E-05
 2.70000E-05 2.55000E-05 2.40000E-05 2.30000E-05 2.20000E-05 2.10000E-05
 2.00000E-05 1.90000E-05 1.80000E-05 1.70000E-05 1.60000E-05 1.50000E-05
 1.42500E-05 1.35000E-05 1.27500E-05 1.20000E-05 1.15000E-05 1.10000E-05
 1.05000E-05 1.00000E-05 9.60000E-06 9.20000E-06 8.80000E-06 8.40000E-06
 8.00000E-06 7.60000E-06 7.20000E-06 6.90000E-06 6.60000E-06 6.30000E-06
 6.00000E-06 5.75000E-06 5.50000E-06 5.25000E-06 5.00000E-06 4.75000E-06
 4.50000E-06 4.25000E-06 4.00000E-06 3.80000E-06 3.60000E-06 3.40000E-06
 3.20000E-06 3.00000E-06 2.80000E-06 2.70000E-06 2.55000E-06 2.40000E-06
 2.30000E-06 2.20000E-06 2.10000E-06 2.00000E-06 1.90000E-06 1.80000E-06
 1.70000E-06 1.60000E-06 1.50000E-06 1.42500E-06 1.35000E-06 1.27500E-06
 1.20000E-06 1.15000E-06 1.10000E-06 1.05000E-06 1.00000E-06 9.60000E-07
 9.20000E-07 8.80000E-07 8.40000E-07 8.00000E-07 7.60000E-07 7.20000E-07
 6.90000E-07 6.60000E-07 6.30000E-07 6.00000E-07 5.75000E-07 5.50000E-07
 5.25000E-07 5.00000E-07 4.75000E-07 4.50000E-07 4.25000E-07 4.00000E-07
 3.80000E-07 3.60000E-07 3.40000E-07 3.20000E-07 3.00000E-07 2.80000E-07
 2.70000E-07 2.55000E-07 2.40000E-07 2.30000E-07 2.20000E-07 2.10000E-07
 2.00000E-07 1.90000E-07 1.80000E-07 1.70000E-07 1.60000E-07 1.50000E-07
 1.42500E-07 1.35000E-07 1.27500E-07 1.20000E-07 1.15000E-07 1.10000E-07
 1.05000E-07 1.00000E-07 9.60000E-08 9.20000E-08 8.80000E-08 8.40000E-08
 8.00000E-08 7.60000E-08 7.20000E-08 6.90000E-08 6.60000E-08 6.30000E-08
 6.00000E-08 5.75000E-08 5.50000E-08 5.25000E-08 5.00000E-08 4.75000E-08
 4.50000E-08 4.25000E-08 4.00000E-08 3.80000E-08 3.60000E-08 3.40000E-08
 3.20000E-08 3.00000E-08 2.80000E-08 2.70000E-08 2.55000E-08 2.40000E-08
 2.30000E-08 2.20000E-08 2.10000E-08 2.00000E-08 1.90000E-08 1.80000E-08
 1.70000E-08 1.60000E-08 1.50000E-08 1.42500E-08 1.35000E-08 1.27500E-08
 1.20000E-08 1.15000E-08 1.10000E-08 1.05000E-08 1.00000E-08 9.60000E-09
 9.20000E-09 8.80000E-09 8.40000E-09 8.00000E-09 7.60000E-09 7.20000E-09
 6.90000E-09 6.60000E-09 6.30000E-09 6.00000E-09 5.75000E-09 5.50000E-09
 5.25000E-09 5.00000E-09 4.75000E-09 4.50000E-09 4.25000E-09 4.00000E-09
 3.80000E-09 3.60000E-09 3.40000E-09 3.20000E-09 3.00000E-09 2.80000E-09
 2.70000E-09 2.55000E-09 2.40000E-09 2.30000E-09 2.20000E-09 2.10000E-09
 2.00000E-09 1.90000E-09 1.80000E-09 1.70000E-09 1.60000E-09 1.50000E-09
 1.42500E-09 1.35000E-09 1.27500E-09 1.20000E-09 1.15000E-09 1.10000E-09
 1.05000E-09 1.00000E-09 9.60000E-10 9.20000E-10 8.80000E-10 8.40000E-10
 8.00000E-10 7.60000E-10 7.20000E-10 6.90000E-10 6.60000E-10 6.30000E-10
 6.00000E-10 5.75000E-10 5.50000E-10 5.25000E-10 5.00000E-10 4.75000E-10
 4.50000E-10 4.25000E-10 4.00000E-10 3.80000E-10 3.60000E-10 3.40000E-10
 3.20000E-10 3.00000E-10 2.80000E-10 2.70000E-10 2.55000E-10 2.40000E-10
 2.30000E-10 2.20000E-10 2.10000E-10 2.00000E-10 1.90000E-10 1.80000E-10
 1.70000E-10 1.60000E-10 1.50000E-10 1.42500E-10 1.35000E-10 1.27500E-10
 1.20000E-10 1.15000E-10 1.10000E-10 1.05000E-10
 0.00000E+00 0.00000E+00 0.00000E+00 0.00000E+00 0.00000E+00 0.00000E+00
 0.00000E+00 0.00000E+00 0.00000E+00 0.00000E+00 0.00000E+00 0.00000E+00
 0.00000E+00 0.00000E+00 0.00000E+00 0.00000E+00 0.00000E+00 1.50280E-08
 0.00000E+00 0.00000E+00 0.00000E+00 0.00000E+00 0.00000E+00 0.00000E+00
 0.00000E+00 0.00000E+00 0.00000E+00 1.81220E-08 0.00000E+00 0.00000E+00
 0.00000E+00 0.00000E+00 0.00000E+00 0.00000E+00 0.00000E+00 0.00000E+00
 0.00000E+00 0.00000E+00 5.34600E-10 1.78300E-08 0.00000E+00 0.00000E+00
 1.74970E-08 1.31650E-08 0.00000E+00 0.00000E+00 0.00000E+00 5.14060E-08
 0.00000E+00 1.79370E-08 0.00000E+00 5.24110E-08 1.49810E-08 1.82730E-08
 1.41210E-08 3.42440E-08 0.00000E+00 1.39170E-08 1.26310E-08 0.00000E+00
 1.19930E-08 5.67830E-08 2.84440E-08 0.00000E+00 0.00000E+00 4.79350E-08
 2.91460E-08 2.37120E-08 3.57470E-08 3.04890E-08 7.92730E-08 2.17020E-08
 6.62810E-08 6.97350E-09 8.37930E-08 5.97300E-08 7.66430E-08 1.21480E-07
 1.07790E-07 1.11620E-07 9.52800E-08 1.33740E-07 7.48380E-08 1.33690E-07
 1.74080E-07 1.29450E-07 1.32680E-07 1.12370E-07 1.22310E-07 2.20440E-07
 2.93820E-07 1.99950E-07 1.97220E-07 2.80080E-07 3.82150E-07 4.59140E-07
 2.24640E-07 3.66070E-07 3.98420E-07 5.16100E-07 3.83430E-07 6.58270E-07
 7.61990E-07 6.09240E-07 7.10180E-07 6.55820E-07 7.19180E-07 8.55700E-07
 7.53510E-07 8.13790E-07 1.20080E-06 1.08360E-06 1.25050E-06 1.15790E-06
 1.28850E-06 1.38890E-06 1.22400E-06 1.72180E-06 1.85700E-06 1.65240E-06
 1.90030E-06 2.00170E-06 2.46740E-06 2.49810E-06 2.82360E-06 2.95000E-06
 3.26840E-06 3.42690E-06 3.17180E-06 3.84500E-06 3.95230E-06 4.28870E-06
 4.68020E-06 5.14270E-06 5.12280E-06 5.72060E-06 6.07390E-06 5.92720E-06
 6.54040E-06 7.23300E-06 8.09550E-06 7.92800E-06 8.14160E-06 9.48590E-06
 8.86950E-06 9.44860E-06 1.05460E-05 1.08330E-05 1.24730E-05 1.32010E-05
 1.56160E-05 1.59290E-05 1.66670E-05 1.83720E-05 2.04350E-05 2.20710E-05
 2.32450E-05 2.78370E-05 2.90210E-05 2.91810E-05 3.06570E-05 3.12130E-05
 3.48210E-05 4.11640E-05 4.33790E-05 4.63460E-05 4.92070E-05 5.25160E-05
 5.54650E-05 5.69860E-05 5.83370E-05 6.16540E-05 2.54470E-05 2.57550E-05
 2.88320E-05 2.90430E-05 3.28930E-05 3.38660E-05 3.91720E-05 2.85450E-05
 2.88790E-05 2.57850E-05 2.84500E-05 2.30930E-05 2.39380E-05 2.30990E-05
 2.65880E-05 2.62480E-05 2.53800E-05 2.13020E-05 2.63070E-05 2.67660E-05
 2.09470E-05 3.01560E-05 2.77940E-05 2.52190E-05 2.52730E-05 1.82910E-05
 2.71690E-05 2.36310E-05 1.41520E-05 1.48010E-05 1.20130E-05 1.32940E-05
 1.91650E-05 2.06210E-05 1.67360E-05 1.48820E-05 1.41540E-05 1.12970E-05
 1.77320E-05 2.52740E-05 1.84930E-05 9.97110E-06 1.28300E-05 1.35570E-05
 1.20300E-05 7.75330E-06 7.19320E-06 5.27150E-06 6.44080E-06 1.13300E-05
 1.81970E-05 1.88090E-05 1.26240E-05 1.25330E-05 1.11870E-05 1.09570E-05
 8.66430E-06 9.73170E-06 9.14670E-06 9.77710E-06 9.91680E-06 1.03780E-05
 9.75130E-06 1.07000E-05 7.45660E-06 5.18860E-06 4.18500E-06 1.14680E-05
 2.08630E-05 1.95170E-05 8.45900E-06 1.22000E-05 1.11670E-05 7.48600E-06
 8.07090E-06 7.90200E-06 8.41340E-06 8.87880E-06 8.83960E-06 1.02090E-05
 1.07640E-05 1.11940E-05 8.71990E-06 9.14790E-06 1.01980E-05 1.02900E-05
 8.23630E-06 7.25580E-06 7.77880E-06 8.75750E-06 6.93400E-06 7.27830E-06
 7.46470E-06 8.36400E-06 8.11590E-06 8.19570E-06 9.31380E-06 6.90380E-06
 7.67700E-06 6.75080E-06 7.60630E-06 4.98890E-06 8.24840E-06 8.28380E-06
 8.55170E-06 8.33000E-06 9.62470E-06 9.41620E-06 9.84450E-06 8.31850E-06
 9.15200E-06 1.00580E-05 1.10640E-05 1.11830E-05 1.09520E-05 5.78460E-06
 9.50980E-06 8.85490E-06 7.05480E-06 6.91960E-06 7.77160E-06 7.73650E-06
 8.26740E-06 8.70950E-06 8.96540E-06 1.02620E-05 1.07590E-05 7.67260E-06
 9.00620E-06 9.72730E-06 1.00210E-05 7.18440E-06 7.03870E-06 7.21240E-06
 7.77680E-06 6.59340E-06 6.45130E-06 7.50020E-06 7.66690E-06 7.50390E-06
 8.44860E-06 8.53760E-06 6.31550E-06 6.86490E-06 6.91400E-06 7.57100E-06
 6.68530E-06 6.77550E-06 7.39010E-06 8.09150E-06 7.76280E-06 8.61830E-06
 8.38480E-06 9.38070E-06 8.21560E-06 8.63720E-06 9.48170E-06 9.73290E-06
 1.06970E-05 1.09860E-05 6.01590E-06 8.87770E-06 1.01250E-05 6.98630E-06
 7.14140E-06 7.48470E-06 7.76290E-06 8.85230E-06 8.46950E-06 8.64580E-06
 9.63980E-06 1.00430E-05 8.25520E-06 8.37910E-06 8.53660E-06 9.49660E-06
 7.39850E-06 7.53090E-06 7.19400E-06 7.57790E-06 6.69410E-06 7.07120E-06
 7.09740E-06 7.70010E-06 7.85010E-06 7.86780E-06 8.49090E-06 7.15680E-06
 6.55700E-06 7.00260E-06 7.50560E-06 6.95920E-06 7.15120E-06 6.97420E-06
 7.30440E-06 7.76930E-06 8.30990E-06 8.84930E-06 9.76030E-06 7.71720E-06
 8.68250E-06 8.87510E-06 8.93430E-06 1.02700E-05 1.05660E-05 5.23590E-06
 8.87800E-06 8.99600E-06 6.68260E-06 6.67480E-06 7.16910E-06 6.63570E-06
 7.60640E-06 7.80280E-06 8.54680E-06 9.17950E-06 9.90550E-06 7.71000E-06
 7.75670E-06 8.79080E-06 8.97140E-06 6.99290E-06 7.10470E-06 6.75800E-06
 7.31390E-06 6.16690E-06 6.75580E-06 6.75230E-06 7.32530E-06 7.35000E-06
 7.38370E-06 8.07260E-06 5.97700E-06 6.86080E-06 6.36410E-06 7.06790E-06
 6.47240E-06 6.38260E-06 6.08000E-06 7.16450E-06 7.65680E-06 8.49630E-06
 8.62590E-06 8.84260E-06 7.72830E-06 7.82270E-06 8.46240E-06 9.03490E-06
 9.41250E-06 1.07490E-05 5.45920E-06 7.87910E-06 9.22480E-06 6.64640E-06
 6.98990E-06 7.49010E-06 7.66390E-06 8.20830E-06 8.25620E-06 9.08100E-06
 9.95130E-06 1.02810E-05 7.86280E-06 8.48730E-06 8.70540E-06 9.28800E-06
 6.86510E-06 7.03510E-06 6.91360E-06 7.88710E-06 6.22620E-06 6.76350E-06
 7.03880E-06 7.78360E-06 8.49000E-06 8.17580E-06 8.63130E-06 7.92660E-06
 6.97420E-06 7.48790E-06 8.56740E-06 7.31250E-06 7.60790E-06 8.00800E-06
 7.93690E-06 9.16420E-06 9.60680E-06 1.08220E-05 1.00870E-05 8.27050E-06
 9.07020E-06 9.93100E-06 9.93300E-06 1.22760E-05 1.22670E-05 6.51040E-06
 1.05290E-05 1.22110E-05 9.23260E-06 9.99950E-06 9.63710E-06 1.10430E-05
 1.23490E-05 1.39370E-05 1.55510E-05 1.76140E-05 1.93690E-05 1.75970E-05
 2.03510E-05 2.28020E-05 2.56490E-05 1.88200E-05 2.12120E-05 2.37390E-05
 2.59300E-05 2.11550E-05 2.44120E-05 2.59150E-05 2.82560E-05 3.09970E-05
 3.49560E-05 3.70630E-05 2.86710E-05 3.10670E-05 3.39210E-05 3.55920E-05
 3.16460E-05 3.23830E-05 3.28720E-05 3.52130E-05 3.57560E-05 3.78210E-05
 3.66970E-05 3.93220E-05 3.10100E-05 3.18040E-05 3.25980E-05 3.26750E-05
 3.37450E-05 3.40380E-05 1.68870E-05 2.39660E-05 2.35750E-05 1.64320E-05
 1.51600E-05 1.56510E-05 1.51760E-05 1.54960E-05 1.51320E-05 1.50650E-05
 1.49070E-05 1.40070E-05 1.07200E-05 1.02980E-05 1.05010E-05 9.67250E-06
 6.17690E-06 5.76680E-06 5.76540E-06 5.27570E-06 4.17050E-06 4.23720E-06
 3.81910E-06 3.75240E-06 3.59050E-06 3.48700E-06 3.58660E-06 2.38590E-06
 2.22200E-06 2.26540E-06 2.57510E-06 2.01560E-06 1.81070E-06 1.70180E-06
 1.53390E-06 1.48410E-06 1.58630E-06 1.45580E-06 1.45960E-06 9.92960E-07
 1.02650E-06 1.09380E-06 9.72180E-07 9.67680E-07 8.70510E-07 4.10720E-07
 5.68510E-07 5.60220E-07 4.30490E-07 2.10200E-07 4.15390E-07 2.81770E-07
 2.00830E-07 3.24970E-07 2.69550E-07 1.78780E-07 1.95970E-07 3.10650E-07
 2.10110E-07 9.83310E-08 1.61090E-07 1.18460E-07 1.51030E-07 6.84270E-08
 7.87010E-08 7.13760E-08 8.16090E-08 2.66440E-08 2.53590E-08 3.32560E-08
 4.41500E-08 7.27670E-08 6.66210E-08 1.24210E-08 2.88360E-08 2.19270E-08
 6.67500E-08 3.21340E-08 1.40320E-08 3.49270E-09 6.18610E-09 3.08190E-08
 3.07990E-08 3.21300E-08 3.75440E-08 3.77780E-08 3.62110E-08 5.64570E-08
 3.24610E-08 0.00000E+00 4.93000E-09 2.42730E-09 1.88580E-08 0.00000E+00
 2.78640E-09 1.41760E-09 0.00000E+00 0.00000E+00 1.02510E-09 1.39450E-09
 0.00000E+00 0.00000E+00 1.84950E-09 0.00000E+00 0.00000E+00 1.07830E-09
 0.00000E+00 0.00000E+00 0.00000E+00
                   0
                   0
