  12   5
  16
   0   0   0   0
-171   0
 1.96400E+01 1.73330E+01 1.49180E+01 1.38400E+01 1.16180E+01 1.00000E+01
 8.18730E+00 6.70320E+00 6.06530E+00 5.48810E+00 4.49330E+00 3.67880E+00
 3.01190E+00 2.46600E+00 2.23130E+00 2.01900E+00 1.65300E+00 1.35330E+00
 1.22460E+00 1.10800E+00 1.00260E+00 9.07180E-01 8.20850E-01 6.08100E-01
 5.50230E-01 4.97870E-01 4.50490E-01 4.07620E-01 3.01970E-01 2.73240E-01
 2.47240E-01 1.83160E-01 1.22770E-01 1.11090E-01 8.22980E-02 6.73800E-02
 5.51660E-02 4.08680E-02 3.69790E-02 2.92830E-02 2.73940E-02 2.47880E-02
 1.66160E-02 1.50340E-02 1.11380E-02 9.11880E-03 7.46590E-03 5.53080E-03
 5.00450E-03 3.52660E-03 3.35460E-03 2.24870E-03 2.03470E-03 1.50730E-03
 1.43380E-03 1.23410E-03 1.01040E-03 9.14240E-04 7.48520E-04 6.77290E-04
 4.54000E-04 3.71700E-04 3.04330E-04 2.03990E-04 1.48630E-04 1.36740E-04
 9.16610E-05 7.56740E-05 6.79040E-05 5.55950E-05 5.15780E-05 4.82520E-05
 4.55170E-05 4.01690E-05 3.72660E-05 3.37200E-05 3.05110E-05 2.76080E-05
 2.49810E-05 2.26030E-05 1.94550E-05 1.59280E-05 1.37100E-05 1.12250E-05
 9.90560E-06 9.18980E-06 8.31530E-06 7.52400E-06 6.16010E-06 5.34640E-06
 5.04350E-06 4.12930E-06 4.00000E-06 3.38080E-06 3.30000E-06 2.76790E-06
 2.72000E-06 2.60000E-06 2.55000E-06 2.36000E-06 2.13000E-06 2.10000E-06
 2.02000E-06 1.93000E-06 1.84000E-06 1.75500E-06 1.67000E-06 1.59000E-06
 1.50000E-06 1.47500E-06 1.44500E-06 1.37000E-06 1.33750E-06 1.30000E-06
 1.23500E-06 1.17000E-06 1.15000E-06 1.12540E-06 1.11000E-06 1.09700E-06
 1.07100E-06 1.04500E-06 1.03500E-06 1.02000E-06 9.96000E-07 9.86000E-07
 9.72000E-07 9.50000E-07 9.30000E-07 9.10000E-07 8.60000E-07 8.50000E-07
 7.90000E-07 7.80000E-07 7.05000E-07 6.25000E-07 5.40000E-07 5.00000E-07
 4.85000E-07 4.33000E-07 4.00000E-07 3.91000E-07 3.50000E-07 3.20000E-07
 3.14500E-07 3.00000E-07 2.80000E-07 2.48000E-07 2.20000E-07 1.89000E-07
 1.80000E-07 1.60000E-07 1.40000E-07 1.34000E-07 1.15000E-07 1.00000E-07
 9.50000E-08 8.00000E-08 7.70000E-08 6.70000E-08 5.80000E-08 5.00000E-08
 4.20000E-08 3.50000E-08 3.00000E-08 2.50000E-08 2.00000E-08 1.50000E-08
 1.00000E-08 6.90000E-09 5.00000E-09 3.00000E-09
 0.00000E+00 1.73910E+08 9.75460E+09 2.41660E+10 1.48820E+11 6.31460E+11
 1.58690E+12 1.50270E+12 2.17410E+12 6.25880E+12 9.36790E+12 1.22830E+13
 1.76350E+13 1.07260E+13 9.72050E+12 2.16820E+13 2.32280E+13 1.20100E+13
 1.19880E+13 1.17100E+13 1.13470E+13 1.23230E+13 3.79190E+13 1.13560E+13
 1.07410E+13 9.84900E+12 8.10210E+12 2.67350E+13 7.13460E+12 8.50000E+12
 2.00290E+13 2.57060E+13 5.69130E+12 1.26560E+13 1.12070E+13 8.54280E+12
 1.09970E+13 2.84590E+12 6.66030E+12 1.87240E+12 4.69100E+12 1.29640E+13
 2.93490E+12 8.47850E+12 5.61440E+12 4.98400E+12 8.23110E+12 2.81140E+12
 9.39780E+12 1.44420E+12 9.53180E+12 2.56480E+12 7.33120E+12 1.47170E+12
 3.60610E+12 4.42600E+12 2.34170E+12 5.15480E+12 1.93300E+12 8.66120E+12
 4.33010E+12 3.24950E+12 9.40950E+12 6.19360E+12 1.68980E+12 8.54820E+12
 4.78510E+12 2.23800E+12 4.24740E+12 1.46290E+12 1.12860E+12 1.55060E+11
 1.11930E+12 1.50510E+12 1.92740E+12 1.94870E+12 1.66740E+12 8.08230E+11
 1.40040E+12 6.09420E+11 7.24590E+11 2.37070E+12 3.26580E+12 2.23420E+12
 1.52320E+12 1.71330E+12 8.63210E+11 2.48710E+12 2.29800E+12 1.07400E+12
 2.22760E+12 4.34800E+10 2.17940E+12 4.77440E+11 2.91490E+12 2.44300E+11
 6.41490E+11 3.30320E+11 1.12180E+12 1.65150E+12 2.35510E+11 5.75510E+11
 7.31480E+11 7.84560E+11 8.88180E+11 7.91790E+11 8.04170E+11 1.00320E+12
 2.71170E+11 4.09850E+11 9.18260E+11 3.73260E+11 5.19780E+11 8.41500E+11
 9.21640E+11 2.88270E+11 3.31240E+11 2.28880E+11 1.75250E+11 3.30600E+11
 3.37470E+11 1.48850E+11 2.89330E+11 3.70150E+11 1.13210E+11 2.18650E+11
 5.00540E+11 2.73180E+11 3.08900E+11 1.01370E+12 2.59830E+11 1.17370E+12
 1.61090E+11 1.65720E+12 2.06350E+12 2.13360E+12 1.24880E+12 4.11480E+11
 1.72300E+12 1.08630E+12 3.85520E+11 1.84570E+12 1.37130E+12 2.97340E+11
 7.58520E+11 1.07460E+12 1.73960E+12 1.86640E+12 2.44050E+12 9.01850E+11
 1.96390E+12 2.39640E+12 6.74290E+11 2.99040E+12 3.22630E+12 1.25780E+12
 4.16680E+12 8.82240E+11 3.29620E+12 3.35850E+12 3.02770E+12 3.46190E+12
 3.02610E+12 2.33020E+12 1.92110E+12 1.94960E+12 1.54260E+12 1.06050E+12
 5.22300E+11 1.96450E+11 1.05210E+11
                   0
                   0
