   2   2
  16
   0   0   0   0
-175   0
0.00000E+00 0.00000E+00 0.00000E+00 0.00000E+00 0.00000E+00 0.00000E+00
0.00000E+00 0.00000E+00 0.00000E+00 0.00000E+00 0.00000E+00 0.00000E+00
0.00000E+00 0.00000E+00 0.00000E+00 0.00000E+00 0.00000E+00 0.00000E+00
0.00000E+00 0.00000E+00 0.00000E+00 0.00000E+00 0.00000E+00 0.00000E+00
0.00000E+00 0.00000E+00 0.00000E+00 0.00000E+00 0.00000E+00 0.00000E+00
0.00000E+00 0.00000E+00 0.00000E+00 0.00000E+00 0.00000E+00 0.00000E+00
0.00000E+00 0.00000E+00 0.00000E+00 0.00000E+00 0.00000E+00 0.00000E+00
0.00000E+00 0.00000E+00 0.00000E+00 0.00000E+00 0.00000E+00 0.00000E+00
0.00000E+00 0.00000E+00 0.00000E+00 0.00000E+00 0.00000E+00 0.00000E+00
0.00000E+00 0.00000E+00 0.00000E+00 0.00000E+00 0.00000E+00 0.00000E+00
0.00000E+00 0.00000E+00 0.00000E+00 0.00000E+00 0.00000E+00 0.00000E+00
0.00000E+00 0.00000E+00 0.00000E+00 0.00000E+00 0.00000E+00 0.00000E+00
0.00000E+00 0.00000E+00 0.00000E+00 0.00000E+00 0.00000E+00 0.00000E+00
0.00000E+00 0.00000E+00 0.00000E+00 0.00000E+00 0.00000E+00 0.00000E+00
0.00000E+00 0.00000E+00 0.00000E+00 0.00000E+00 0.00000E+00 0.00000E+00
0.00000E+00 0.00000E+00 0.00000E+00 0.00000E+00 0.00000E+00 0.00000E+00
0.00000E+00 0.00000E+00 0.00000E+00 0.00000E+00 0.00000E+00 0.00000E+00
0.00000E+00 0.00000E+00 2.76116E+09 1.74099E+10 6.61643E+09 5.16574E+09
1.38030E+10 9.23462E+09 2.43726E+10 1.04457E+10 1.74094E+10 1.74078E+10
2.43728E+10 1.04460E+10 1.53770E+10 7.53510E+09 4.94594E+09 6.95889E+09
3.48177E+09 3.48242E+09 1.04473E+10 1.74066E+10 3.48257E+10 3.48127E+10
1.39241E+10 2.08974E+10 3.48193E+10 3.48190E+10 3.48185E+10 2.08917E+10
1.39273E+10 1.39260E+10 1.39297E+10 6.96117E+09 6.96274E+09 1.39276E+10
1.39280E+10 3.48210E+10 3.48173E+10 3.48185E+10 3.48189E+10 3.48182E+10
3.48193E+10 3.48170E+10 3.48230E+10 3.48191E+10 3.48136E+10 3.48244E+10
3.48168E+10 3.48179E+10 3.48186E+10 3.48190E+10 3.48165E+10 3.48215E+10
3.48196E+10 3.48127E+10 3.48188E+10 3.48234E+10 3.48180E+10 3.48179E+10
3.48191E+10 3.48181E+10 3.48211E+10 3.48159E+10 3.48199E+10 3.48175E+10
3.48147E+10 3.48239E+10 3.48196E+10 3.48193E+10 8.61723E+09 6.18242E+12
5.88175E+13
                   0
                   0
