  12   5
  16
   0   0   0   0
-172   0
 1.96400E+01 1.73330E+01 1.49180E+01 1.38400E+01 1.16180E+01 1.00000E+01
 8.18730E+00 6.70320E+00 6.06530E+00 5.48810E+00 4.49330E+00 3.67880E+00
 3.01190E+00 2.46600E+00 2.23130E+00 2.01900E+00 1.65300E+00 1.35340E+00
 1.22460E+00 1.10800E+00 1.00260E+00 9.07180E-01 8.20850E-01 6.08100E-01
 5.50230E-01 4.97870E-01 4.50490E-01 4.07620E-01 3.01970E-01 2.73240E-01
 2.47240E-01 1.83160E-01 1.22770E-01 1.11090E-01 8.22970E-02 6.73790E-02
 5.51660E-02 4.08680E-02 3.69790E-02 2.92830E-02 2.73940E-02 2.47880E-02
 1.66160E-02 1.50340E-02 1.11380E-02 9.11880E-03 7.46590E-03 5.53080E-03
 5.00450E-03 3.52660E-03 3.35460E-03 2.24870E-03 2.03470E-03 1.50730E-03
 1.43380E-03 1.23410E-03 1.01040E-03 9.14240E-04 7.48520E-04 6.77290E-04
 4.54000E-04 3.71700E-04 3.04320E-04 2.03990E-04 1.48630E-04 1.36740E-04
 9.16610E-05 7.56740E-05 6.79040E-05 5.55950E-05 5.15780E-05 4.82520E-05
 4.55170E-05 4.01690E-05 3.72670E-05 3.37200E-05 3.05110E-05 2.76080E-05
 2.49800E-05 2.26030E-05 1.94550E-05 1.59280E-05 1.37100E-05 1.12240E-05
 9.90560E-06 9.18980E-06 8.31530E-06 7.52400E-06 6.16010E-06 5.34640E-06
 5.04350E-06 4.12930E-06 4.00000E-06 3.38070E-06 3.30000E-06 2.76790E-06
 2.72000E-06 2.60000E-06 2.55000E-06 2.36000E-06 2.13000E-06 2.10000E-06
 2.02000E-06 1.93000E-06 1.84000E-06 1.75500E-06 1.67000E-06 1.59000E-06
 1.50000E-06 1.47500E-06 1.44000E-06 1.37000E-06 1.33750E-06 1.30000E-06
 1.23500E-06 1.17000E-06 1.15000E-06 1.12300E-06 1.11000E-06 1.09700E-06
 1.07100E-06 1.04500E-06 1.03500E-06 1.02000E-06 9.96000E-07 9.86000E-07
 9.72000E-07 9.50000E-07 9.30000E-07 9.10000E-07 8.60000E-07 8.50000E-07
 7.90000E-07 7.80000E-07 7.05000E-07 6.25000E-07 5.40000E-07 5.00000E-07
 4.85000E-07 4.33000E-07 4.00000E-07 3.91000E-07 3.50000E-07 3.20000E-07
 3.14500E-07 3.00000E-07 2.80000E-07 2.48000E-07 2.20000E-07 1.89000E-07
 1.80000E-07 1.60000E-07 1.40000E-07 1.34000E-07 1.15000E-07 1.00000E-07
 9.50000E-08 8.00000E-08 7.70000E-08 6.70000E-08 5.80000E-08 5.00000E-08
 4.20000E-08 3.50000E-08 3.00000E-08 2.50000E-08 2.00000E-08 1.50000E-08
 1.00000E-08 6.90000E-09 5.00000E-09 3.00000E-09 1.00000E-09
 2.11950E-09 7.35620E-09 6.64340E-09 4.47330E-08 1.39740E-07 6.64270E-07
 2.13950E-06 2.22730E-06 3.27590E-06 1.21480E-05 2.16340E-05 3.80090E-05
 6.67140E-05 4.66940E-05 4.81160E-05 1.22620E-04 1.78670E-04 1.09950E-04
 1.35710E-04 1.20460E-04 1.35370E-04 2.14120E-04 1.09770E-03 5.41350E-04
 6.49020E-04 6.19730E-04 4.23340E-04 2.42630E-03 1.30690E-03 1.41860E-03
 4.46560E-03 9.61720E-03 3.01230E-03 9.61040E-03 9.35480E-03 9.51360E-03
 1.58420E-02 6.23580E-03 1.34130E-02 1.96950E-03 1.15570E-02 3.98950E-02
 7.51050E-03 3.43320E-02 2.65140E-02 2.01230E-02 3.92380E-02 1.46470E-02
 4.40250E-02 4.45160E-03 2.39750E-02 2.04730E-02 9.63580E-02 1.93180E-02
 5.70580E-02 6.62470E-02 3.42050E-02 6.45190E-02 3.11670E-02 1.01510E-01
 3.77200E-02 2.14770E-02 4.69320E-02 2.15620E-02 4.44860E-03 1.25540E-02
 2.35400E-03 7.91260E-04 7.41540E-04 1.91080E-04 1.38680E-04 1.09590E-04
 1.46610E-04 6.49490E-05 3.98810E-05 5.76610E-05 5.98850E-05 4.64460E-05
 4.58580E-05 1.74430E-05 2.13790E-05 6.84780E-06 7.55980E-06 1.89200E-06
 2.03880E-06 2.95000E-06 1.64020E-06 1.52070E-06 1.76430E-06 1.06640E-06
 1.69480E-06 2.94750E-07 2.28200E-06 3.54250E-07 2.57750E-06 3.50230E-07
 6.47820E-07 3.46770E-07 1.47630E-06 1.51640E-06 3.80260E-07 7.56880E-07
 7.54640E-07 1.16280E-06 8.00990E-07 8.31220E-07 8.55110E-07 8.63750E-07
 4.27690E-07 3.60570E-07 8.61630E-07 3.69360E-07 3.38470E-07 5.53910E-07
 3.42160E-07 8.81860E-08 4.59640E-08 3.42890E-08 2.28710E-08 3.64300E-08
 2.02740E-08 2.83200E-08 4.20310E-08 1.83090E-07 1.04840E-06 1.59400E-06
 2.88850E-06 4.91850E-06 7.01400E-06 2.19300E-05 1.34060E-05 3.27100E-05
 1.89430E-05 4.24340E-05 6.90610E-05 6.24760E-05 5.07410E-05 1.40810E-05
 3.22380E-05 1.31730E-05 4.80940E-06 6.10960E-06 3.07860E-06 1.17280E-06
 1.06380E-06 9.80330E-07 2.39940E-06 3.66160E-06 8.74560E-06 3.68090E-06
 8.40230E-06 1.45820E-05 5.21470E-06 5.48400E-06 5.71180E-06 5.77600E-06
 5.78280E-06 5.74580E-06 5.65910E-06 5.47550E-06 5.23470E-06 4.94990E-06
 4.61250E-06 4.28260E-06 3.97000E-06 3.60610E-06 3.17910E-06 2.66530E-06
 2.14290E-06 1.74420E-06 1.36900E-06 7.86870E-07
                   0
                   0
