  12   5
  16
   0   0   0   0
 -70   0
 2.00000E+01 1.91000E+01 1.79000E+01 1.69000E+01 1.59000E+01 1.46000E+01
 1.40500E+01 1.35500E+01 1.30500E+01 1.25500E+01 1.20500E+01 1.15500E+01
 1.10500E+01 1.05500E+01 1.00500E+01 9.55000E+00 9.05000E+00 8.55000E+00
 8.05000E+00 7.55000E+00 7.05000E+00 6.55000E+00 6.05000E+00 5.55000E+00
 5.05000E+00 4.75000E+00 4.45000E+00 4.15000E+00 3.85000E+00 3.55000E+00
 3.25000E+00 2.95000E+00 2.75000E+00 2.55000E+00 2.35000E+00 2.15000E+00
 1.95000E+00 1.85000E+00 1.75000E+00 1.65000E+00 1.55000E+00 1.45000E+00
 1.35000E+00 1.25000E+00 1.15000E+00 1.05000E+00 9.55000E-01 9.05000E-01
 8.55000E-01 8.05000E-01 7.55000E-01 7.05000E-01 6.55000E-01 6.05000E-01
 5.55000E-01 5.05000E-01 4.55000E-01 4.05000E-01 3.55000E-01 3.05000E-01
 2.55000E-01 2.25000E-01 1.95000E-01 1.65000E-01 1.35000E-01 1.15000E-01
 9.50000E-02 7.50000E-02 5.50000E-02 3.50000E-02 1.50000E-02
 2.14550E-06 6.01240E-06 1.06380E-05 2.11850E-05 6.14930E-05 4.77710E-05
 6.21390E-05 8.74630E-05 1.22920E-04 1.72450E-04 2.41660E-04 3.38290E-04
 4.73300E-04 6.62140E-04 9.26070E-04 1.29350E-03 1.80530E-03 2.51890E-03
 3.51500E-03 4.90400E-03 6.82920E-03 9.47970E-03 1.31090E-02 1.80470E-02
 1.39050E-02 1.67740E-02 2.01910E-02 2.42290E-02 2.89630E-02 3.44390E-02
 4.07320E-02 3.10440E-02 3.44450E-02 3.80790E-02 4.19520E-02 4.60310E-02
 2.45880E-02 2.56440E-02 2.67070E-02 2.77450E-02 2.87690E-02 2.97550E-02
 3.06780E-02 3.15310E-02 3.22820E-02 3.12450E-02 1.66270E-02 1.67250E-02
 1.67930E-02 1.68310E-02 1.68370E-02 1.68020E-02 1.67200E-02 1.65870E-02
 1.63900E-02 1.61380E-02 1.57950E-02 1.53520E-02 1.47930E-02 1.40900E-02
 8.04110E-03 7.67300E-03 7.24730E-03 6.74950E-03 4.17770E-03 3.88030E-03
 3.53800E-03 3.13380E-03 2.63890E-03 1.98060E-03
                   0
                   0
