  12   5
  16
   0   0   0   0
 -69   0
 1.00000E+01 6.06550E+00 3.67900E+00 2.23100E+00 1.35300E+00 8.21000E-01
 5.00000E-01 3.02500E-01 1.83000E-01 1.11000E-01 6.73400E-02 4.08500E-02
 2.47800E-02 1.50300E-02 9.11800E-03 5.53000E-03 3.51910E-03 2.23940E-03
 1.42510E-03 9.06900E-04 3.67260E-04 1.48730E-04 7.55010E-05 4.80520E-05
 2.77000E-05 1.59680E-05 9.87700E-06 4.00000E-06 3.30000E-06 2.60000E-06
 2.10000E-06 1.50000E-06 1.30000E-06 1.15000E-06 1.12300E-06 1.09700E-06
 1.07100E-06 1.04500E-06 1.02000E-06 9.96000E-07 9.72000E-07 9.50000E-07
 9.10000E-07 8.50000E-07 7.80000E-07 6.25000E-07 5.00000E-07 4.00000E-07
 3.50000E-07 3.20000E-07 3.00000E-07 2.80000E-07 2.50000E-07 2.20000E-07
 1.80000E-07 1.40000E-07 1.00000E-07 8.00000E-08 6.70000E-08 5.80000E-08
 5.00000E-08 4.20000E-08 3.50000E-08 3.00000E-08 2.50000E-08 2.00000E-08
 1.50000E-08 1.00000E-08 5.00000E-09 1.00000E-09
 6.77510E+11 2.61550E+12 4.97960E+12 5.14110E+12 4.24950E+12 3.97550E+12
 2.64210E+12 2.32720E+12 1.80060E+12 1.49860E+12 1.28750E+12 1.17710E+12
 1.09140E+12 1.04250E+12 1.01040E+12 9.04500E+11 8.92020E+11 8.86090E+11
 8.81800E+11 1.76070E+12 1.75280E+12 1.30840E+12 8.68100E+11 1.05620E+12
 1.05340E+12 9.16160E+11 1.72270E+12 3.63600E+11 4.52760E+11 4.25770E+11
 6.83030E+11 2.96930E+11 2.52760E+11 4.90800E+10 4.88750E+10 5.02450E+10
 5.14520E+10 5.06340E+10 5.07980E+10 5.16360E+10 4.95500E+10 9.24130E+10
 1.44930E+11 1.92150E+11 4.80570E+11 5.15130E+11 5.05520E+11 3.14520E+11
 2.08590E+11 1.59080E+11 1.75360E+11 2.99590E+11 3.73820E+11 7.27200E+11
 1.38810E+12 3.13910E+12 2.95300E+12 2.75050E+12 2.39060E+12 2.45190E+12
 2.78940E+12 2.67690E+12 1.99650E+12 1.98830E+12 1.94540E+12 1.79770E+12
 1.50720E+12 1.04270E+12 3.76070E+11
                   0
                   0
