  12   5
  16
   0   0   0   0
-175   0
 1.96400E+01 1.73320E+01 1.69050E+01 1.64870E+01 1.56830E+01 1.49180E+01
 1.45500E+01 1.41910E+01 1.38400E+01 1.34990E+01 1.28400E+01 1.25230E+01
 1.22140E+01 1.16180E+01 1.10520E+01 1.05130E+01 1.00000E+01 9.51230E+00
 9.04840E+00 8.60710E+00 8.18730E+00 7.78800E+00 7.40820E+00 7.04690E+00
 6.70320E+00 6.59240E+00 6.37630E+00 6.06530E+00 5.76950E+00 5.48810E+00
 5.22050E+00 4.96580E+00 4.72370E+00 4.49330E+00 4.06570E+00 3.67880E+00
 3.32870E+00 3.16640E+00 3.01190E+00 2.86500E+00 2.72530E+00 2.59240E+00
 2.46600E+00 2.38510E+00 2.36530E+00 2.34570E+00 2.30690E+00 2.23130E+00
 2.12250E+00 2.01900E+00 1.92050E+00 1.82680E+00 1.73770E+00 1.65300E+00
 1.57240E+00 1.49570E+00 1.42270E+00 1.35340E+00 1.28740E+00 1.22460E+00
 1.16480E+00 1.10800E+00 1.00260E+00 9.61670E-01 9.07180E-01 8.62940E-01
 8.20850E-01 7.80820E-01 7.42740E-01 7.06510E-01 6.72060E-01 6.39280E-01
 6.08100E-01 5.78440E-01 5.50230E-01 5.23400E-01 4.97870E-01 4.50490E-01
 4.07620E-01 3.87740E-01 3.68830E-01 3.33730E-01 3.01970E-01 2.98490E-01
 2.97210E-01 2.94520E-01 2.87250E-01 2.73240E-01 2.47240E-01 2.35180E-01
 2.23710E-01 2.12800E-01 2.02420E-01 1.92550E-01 1.83160E-01 1.74220E-01
 1.65730E-01 1.57640E-01 1.49960E-01 1.42640E-01 1.35690E-01 1.29070E-01
 1.22770E-01 1.16790E-01 1.11090E-01 9.80360E-02 8.65170E-02 8.25030E-02
 7.94990E-02 7.20240E-02 6.73800E-02 5.65620E-02 5.24750E-02 4.63090E-02
 4.08680E-02 3.43070E-02 3.18280E-02 2.85010E-02 2.70000E-02 2.60580E-02
 2.47880E-02 2.41760E-02 2.35790E-02 2.18750E-02 1.93040E-02 1.50340E-02
 1.17090E-02 1.05950E-02 9.11880E-03 7.10170E-03 5.53080E-03 4.30740E-03
 3.70740E-03 3.35460E-03 3.03540E-03 2.74650E-03 2.61260E-03 2.48520E-03
 2.24870E-03 2.03470E-03 1.58460E-03 1.23410E-03 9.61120E-04 7.48520E-04
 5.82950E-04 4.54000E-04 3.53580E-04 2.75360E-04 2.14450E-04 1.67020E-04
 1.30070E-04 1.01300E-04 7.88930E-05 6.14420E-05 4.78510E-05 3.72660E-05
 2.90230E-05 2.26030E-05 1.76040E-05 1.37100E-05 1.06770E-05 8.31530E-06
 6.47590E-06 5.04350E-06 3.92790E-06 3.05900E-06 2.38240E-06 1.85540E-06
 1.44500E-06 1.12530E-06 8.76430E-07 6.82560E-07 5.31580E-07 4.13990E-07
 1.00000E-07 1.00000E-09
 0.00000E+00 0.00000E+00 0.00000E+00 3.59020E+08 4.56260E+11 3.24240E+12
 9.77550E+12 1.28710E+13 8.05110E+12 4.04690E+12 5.40330E+11 3.55200E+11
 4.87870E+11 5.05020E+11 6.11200E+11 6.16300E+11 5.48400E+11 4.73610E+11
 4.08210E+11 3.73070E+11 3.66930E+11 3.65680E+11 3.59110E+11 3.57020E+11
 1.20080E+11 2.44940E+11 3.80460E+11 3.96310E+11 4.11250E+11 4.22090E+11
 4.26220E+11 4.35370E+11 4.39430E+11 9.10470E+11 9.10340E+11 9.40130E+11
 4.89520E+11 4.99380E+11 5.03340E+11 5.08410E+11 5.83180E+11 6.53090E+11
 4.56460E+11 1.20860E+11 1.20730E+11 2.39160E+11 4.99900E+11 7.78730E+11
 8.31550E+11 8.80950E+11 9.48650E+11 1.02990E+12 1.08130E+12 1.09650E+12
 1.10330E+12 1.12640E+12 1.15170E+12 1.15790E+12 1.18030E+12 1.25600E+12
 1.24330E+12 2.43070E+12 1.02700E+12 1.51990E+12 1.33230E+12 1.40320E+12
 1.33010E+12 1.44890E+12 1.47890E+12 1.48110E+12 1.38590E+12 1.01600E+12
 1.34680E+12 1.50080E+12 1.47710E+12 1.50210E+12 2.93760E+12 2.82760E+12
 1.38650E+12 1.37140E+12 2.66480E+12 2.56230E+12 2.98050E+11 1.09450E+11
 2.33440E+11 6.06710E+11 1.22260E+12 2.35430E+12 1.12570E+12 1.09330E+12
 1.04780E+12 1.01730E+12 9.73590E+11 9.87840E+11 9.85800E+11 9.21930E+11
 9.35950E+11 8.93350E+11 8.57030E+11 7.96880E+11 9.26700E+11 8.38700E+11
 8.48560E+11 8.06740E+11 1.88340E+12 1.81790E+12 6.30600E+11 5.29280E+11
 1.32500E+12 9.36110E+11 2.19950E+12 8.95520E+11 1.52670E+12 1.40100E+12
 1.88530E+12 7.98950E+11 1.06450E+12 5.07080E+11 3.28190E+11 4.52190E+11
 3.02550E+11 2.74190E+11 7.43290E+11 1.16740E+12 2.19630E+12 2.12690E+12
 7.70530E+11 1.14400E+12 1.98370E+12 1.84900E+12 1.81550E+12 1.06520E+12
 7.24610E+11 6.96020E+11 6.73640E+11 2.95750E+11 2.91790E+11 7.13720E+11
 5.30230E+11 1.77470E+12 1.65830E+12 1.59710E+12 1.56150E+12 1.48070E+12
 1.42500E+12 1.38610E+12 1.34110E+12 1.34610E+12 1.32840E+12 1.28150E+12
 1.29640E+12 1.27830E+12 1.26910E+12 1.25450E+12 1.21040E+12 1.19820E+12
 1.16470E+12 1.13990E+12 1.12010E+12 1.09550E+12 1.08140E+12 1.05070E+12
 1.02200E+12 9.87970E+11 9.55090E+11 9.31070E+11 9.02250E+11 8.76860E+11
 8.44760E+11 8.13530E+11 7.78980E+11 7.47350E+11 7.10740E+11 3.58190E+12
 3.12050E+12
                   0
                   0
