  12   5
  16
   0   0   0   0
-112   0
 2.00000E+01 1.93000E+01 1.84000E+01 1.77000E+01 1.70000E+01 1.65000E+01
 1.58000E+01 1.54000E+01 1.49000E+01 1.43000E+01 1.38000E+01 1.33000E+01
 1.29000E+01 1.26000E+01 1.21000E+01 1.17000E+01 1.13000E+01 1.09000E+01
 1.05000E+01 1.00000E+01 9.69000E+00 8.27000E+00 7.55000E+00 6.72000E+00
 5.41000E+00 3.53000E+00 2.87000E+00 2.60000E+00 2.42000E+00 2.36000E+00
 2.29000E+00 2.08000E+00 1.79000E+00 1.50000E+00 1.18000E+00 9.12000E-01
 7.82000E-01 6.75000E-01 5.53000E-01 4.33000E-01 3.33000E-01 2.40000E-01
 1.47000E-01 8.92000E-02 5.41000E-02 4.61000E-02 3.64000E-02 2.89000E-02
 2.51000E-02 2.30000E-02 1.85000E-02 1.11000E-02 9.05000E-03 8.32000E-03
 7.52000E-03 6.92000E-03 5.52000E-03 4.93000E-03 3.23000E-03 2.47000E-03
 1.02000E-03 9.67000E-04 8.62000E-04 7.35000E-04 6.73000E-04 5.56000E-04
 4.71000E-04 3.34000E-04 2.45000E-04 1.28000E-04 8.25000E-05 6.18000E-05
 4.78000E-05 3.55000E-05 2.93000E-05 2.15000E-05 1.27000E-05 9.40000E-06
 8.45000E-06 7.32000E-06 6.57000E-06 5.36000E-06 4.45000E-06 3.56000E-06
 2.25000E-06 1.15000E-06 9.45000E-07 8.43000E-07 7.37000E-07 6.32000E-07
 5.45000E-07 4.45000E-07 3.67000E-07 3.15000E-07 2.80000E-07 2.37000E-07
 1.71000E-07 1.05000E-07 9.82000E-08 9.19000E-08 8.67000E-08 8.18000E-08
 7.32000E-08 6.75000E-08 5.56000E-08 4.40000E-08 3.50000E-08 2.86000E-08
 1.45000E-08 8.37000E-09 6.45000E-09 3.57000E-09 1.05000E-09
 0.00000E+00 0.00000E+00 0.00000E+00 0.00000E+00 0.00000E+00 0.00000E+00
 0.00000E+00 0.00000E+00 0.00000E+00 0.00000E+00 0.00000E+00 0.00000E+00
 0.00000E+00 0.00000E+00 0.00000E+00 0.00000E+00 0.00000E+00 6.31440E+09
 1.44140E+10 0.00000E+00 3.21560E+10 3.78220E+10 6.78920E+10 1.81380E+11
 7.20300E+11 4.59220E+11 2.04240E+11 2.94200E+11 9.73660E+10 1.64900E+11
 4.15750E+11 7.53980E+11 1.17420E+12 1.46960E+12 1.40460E+12 8.34040E+11
 9.99520E+11 9.43910E+11 1.21450E+12 1.25470E+12 1.57840E+12 1.65600E+12
 1.69960E+12 1.55040E+12 4.60760E+11 5.04070E+11 5.69240E+11 3.83140E+11
 1.91520E+11 6.40520E+11 1.27810E+12 5.22490E+11 2.28910E+11 2.45040E+11
 1.98030E+11 5.47050E+11 3.39980E+11 1.13190E+12 7.17880E+11 2.30150E+12
 1.50210E+11 3.06490E+11 3.99280E+11 2.82400E+11 6.01630E+11 4.08690E+11
 9.11270E+11 7.88340E+11 1.76970E+12 1.41210E+12 8.43120E+11 8.48270E+11
 9.55840E+11 5.56860E+11 8.65670E+11 1.60540E+12 1.04860E+12 4.01510E+11
 4.25670E+11 3.28590E+11 5.54620E+11 6.52480E+11 6.40500E+11 1.58930E+12
 2.16900E+12 5.83720E+11 4.00300E+11 4.68350E+11 5.76460E+11 5.09240E+11
 7.81510E+11 7.27990E+11 6.27330E+11 5.14730E+11 9.59060E+11 2.26340E+12
 8.90220E+12 1.92640E+12 2.15300E+12 2.16470E+12 2.20870E+12 4.33630E+12
 3.79800E+12 9.20120E+12 1.07360E+13 1.00370E+13 7.43040E+12 1.60860E+13
 5.83710E+12 1.30120E+12 1.23050E+12 5.76350E+11
                   0
                   0
