  12   5
  16
   0   0   0   0
-640   0
 2.00000E+01 1.99000E+01 1.98000E+01 1.97000E+01 1.96000E+01 1.95000E+01
 1.94000E+01 1.93000E+01 1.92000E+01 1.91000E+01 1.90000E+01 1.89000E+01
 1.88000E+01 1.87000E+01 1.86000E+01 1.85000E+01 1.84000E+01 1.83000E+01
 1.82000E+01 1.81000E+01 1.80000E+01 1.79000E+01 1.78000E+01 1.77000E+01
 1.76000E+01 1.75000E+01 1.74000E+01 1.73000E+01 1.72000E+01 1.71000E+01
 1.70000E+01 1.69000E+01 1.68000E+01 1.67000E+01 1.66000E+01 1.65000E+01
 1.64000E+01 1.63000E+01 1.62000E+01 1.61000E+01 1.60000E+01 1.59000E+01
 1.58000E+01 1.57000E+01 1.56000E+01 1.55000E+01 1.54000E+01 1.53000E+01
 1.52000E+01 1.51000E+01 1.50000E+01 1.49000E+01 1.48000E+01 1.47000E+01
 1.46000E+01 1.45000E+01 1.44000E+01 1.43000E+01 1.42000E+01 1.41000E+01
 1.40000E+01 1.39000E+01 1.38000E+01 1.37000E+01 1.36000E+01 1.35000E+01
 1.34000E+01 1.33000E+01 1.32000E+01 1.31000E+01 1.30000E+01 1.29000E+01
 1.28000E+01 1.27000E+01 1.26000E+01 1.25000E+01 1.24000E+01 1.23000E+01
 1.22000E+01 1.21000E+01 1.20000E+01 1.19000E+01 1.18000E+01 1.17000E+01
 1.16000E+01 1.15000E+01 1.14000E+01 1.13000E+01 1.12000E+01 1.11000E+01
 1.10000E+01 1.09000E+01 1.08000E+01 1.07000E+01 1.06000E+01 1.05000E+01
 1.04000E+01 1.03000E+01 1.02000E+01 1.01000E+01 1.00000E+01 9.90000E+00
 9.80000E+00 9.70000E+00 9.60000E+00 9.50000E+00 9.40000E+00 9.30000E+00
 9.20000E+00 9.10000E+00 9.00000E+00 8.90000E+00 8.80000E+00 8.70000E+00
 8.60000E+00 8.50000E+00 8.40000E+00 8.30000E+00 8.20000E+00 8.10000E+00
 8.00000E+00 7.90000E+00 7.80000E+00 7.70000E+00 7.60000E+00 7.50000E+00
 7.40000E+00 7.30000E+00 7.20000E+00 7.10000E+00 7.00000E+00 6.90000E+00
 6.80000E+00 6.70000E+00 6.60000E+00 6.50000E+00 6.40000E+00 6.30000E+00
 6.20000E+00 6.10000E+00 6.00000E+00 5.90000E+00 5.80000E+00 5.70000E+00
 5.60000E+00 5.50000E+00 5.40000E+00 5.30000E+00 5.20000E+00 5.10000E+00
 5.00000E+00 4.90000E+00 4.80000E+00 4.70000E+00 4.60000E+00 4.50000E+00
 4.40000E+00 4.30000E+00 4.20000E+00 4.10000E+00 4.00000E+00 3.90000E+00
 3.80000E+00 3.70000E+00 3.60000E+00 3.50000E+00 3.40000E+00 3.30000E+00
 3.20000E+00 3.10000E+00 3.00000E+00 2.90000E+00 2.80000E+00 2.70000E+00
 2.60000E+00 2.50000E+00 2.40000E+00 2.30000E+00 2.20000E+00 2.10000E+00
 2.00000E+00 1.90000E+00 1.80000E+00 1.70000E+00 1.60000E+00 1.50000E+00
 1.40000E+00 1.30000E+00 1.20000E+00 1.10000E+00 1.00000E+00 9.60000E-01
 9.20000E-01 8.80000E-01 8.40000E-01 8.00000E-01 7.60000E-01 7.20000E-01
 6.90000E-01 6.60000E-01 6.30000E-01 6.00000E-01 5.75000E-01 5.50000E-01
 5.25000E-01 5.00000E-01 4.75000E-01 4.50000E-01 4.25000E-01 4.00000E-01
 3.80000E-01 3.60000E-01 3.40000E-01 3.20000E-01 3.00000E-01 2.80000E-01
 2.70000E-01 2.55000E-01 2.40000E-01 2.30000E-01 2.20000E-01 2.10000E-01
 2.00000E-01 1.90000E-01 1.80000E-01 1.70000E-01 1.60000E-01 1.50000E-01
 1.42500E-01 1.35000E-01 1.27500E-01 1.20000E-01 1.15000E-01 1.10000E-01
 1.05000E-01 1.00000E-01 9.60000E-02 9.20000E-02 8.80000E-02 8.40000E-02
 8.00000E-02 7.60000E-02 7.20000E-02 6.90000E-02 6.60000E-02 6.30000E-02
 6.00000E-02 5.75000E-02 5.50000E-02 5.25000E-02 5.00000E-02 4.75000E-02
 4.50000E-02 4.25000E-02 4.00000E-02 3.80000E-02 3.60000E-02 3.40000E-02
 3.20000E-02 3.00000E-02 2.80000E-02 2.70000E-02 2.55000E-02 2.40000E-02
 2.30000E-02 2.20000E-02 2.10000E-02 2.00000E-02 1.90000E-02 1.80000E-02
 1.70000E-02 1.60000E-02 1.50000E-02 1.42500E-02 1.35000E-02 1.27500E-02
 1.20000E-02 1.15000E-02 1.10000E-02 1.05000E-02 1.00000E-02 9.60000E-03
 9.20000E-03 8.80000E-03 8.40000E-03 8.00000E-03 7.60000E-03 7.20000E-03
 6.90000E-03 6.60000E-03 6.30000E-03 6.00000E-03 5.75000E-03 5.50000E-03
 5.25000E-03 5.00000E-03 4.75000E-03 4.50000E-03 4.25000E-03 4.00000E-03
 3.80000E-03 3.60000E-03 3.40000E-03 3.20000E-03 3.00000E-03 2.80000E-03
 2.70000E-03 2.55000E-03 2.40000E-03 2.30000E-03 2.20000E-03 2.10000E-03
 2.00000E-03 1.90000E-03 1.80000E-03 1.70000E-03 1.60000E-03 1.50000E-03
 1.42500E-03 1.35000E-03 1.27500E-03 1.20000E-03 1.15000E-03 1.10000E-03
 1.05000E-03 1.00000E-03 9.60000E-04 9.20000E-04 8.80000E-04 8.40000E-04
 8.00000E-04 7.60000E-04 7.20000E-04 6.90000E-04 6.60000E-04 6.30000E-04
 6.00000E-04 5.75000E-04 5.50000E-04 5.25000E-04 5.00000E-04 4.75000E-04
 4.50000E-04 4.25000E-04 4.00000E-04 3.80000E-04 3.60000E-04 3.40000E-04
 3.20000E-04 3.00000E-04 2.80000E-04 2.70000E-04 2.55000E-04 2.40000E-04
 2.30000E-04 2.20000E-04 2.10000E-04 2.00000E-04 1.90000E-04 1.80000E-04
 1.70000E-04 1.60000E-04 1.50000E-04 1.42500E-04 1.35000E-04 1.27500E-04
 1.20000E-04 1.15000E-04 1.10000E-04 1.05000E-04 1.00000E-04 9.60000E-05
 9.20000E-05 8.80000E-05 8.40000E-05 8.00000E-05 7.60000E-05 7.20000E-05
 6.90000E-05 6.60000E-05 6.30000E-05 6.00000E-05 5.75000E-05 5.50000E-05
 5.25000E-05 5.00000E-05 4.75000E-05 4.50000E-05 4.25000E-05 4.00000E-05
 3.80000E-05 3.60000E-05 3.40000E-05 3.20000E-05 3.00000E-05 2.80000E-05
 2.70000E-05 2.55000E-05 2.40000E-05 2.30000E-05 2.20000E-05 2.10000E-05
 2.00000E-05 1.90000E-05 1.80000E-05 1.70000E-05 1.60000E-05 1.50000E-05
 1.42500E-05 1.35000E-05 1.27500E-05 1.20000E-05 1.15000E-05 1.10000E-05
 1.05000E-05 1.00000E-05 9.60000E-06 9.20000E-06 8.80000E-06 8.40000E-06
 8.00000E-06 7.60000E-06 7.20000E-06 6.90000E-06 6.60000E-06 6.30000E-06
 6.00000E-06 5.75000E-06 5.50000E-06 5.25000E-06 5.00000E-06 4.75000E-06
 4.50000E-06 4.25000E-06 4.00000E-06 3.80000E-06 3.60000E-06 3.40000E-06
 3.20000E-06 3.00000E-06 2.80000E-06 2.70000E-06 2.55000E-06 2.40000E-06
 2.30000E-06 2.20000E-06 2.10000E-06 2.00000E-06 1.90000E-06 1.80000E-06
 1.70000E-06 1.60000E-06 1.50000E-06 1.42500E-06 1.35000E-06 1.27500E-06
 1.20000E-06 1.15000E-06 1.10000E-06 1.05000E-06 1.00000E-06 9.60000E-07
 9.20000E-07 8.80000E-07 8.40000E-07 8.00000E-07 7.60000E-07 7.20000E-07
 6.90000E-07 6.60000E-07 6.30000E-07 6.00000E-07 5.75000E-07 5.50000E-07
 5.25000E-07 5.00000E-07 4.75000E-07 4.50000E-07 4.25000E-07 4.00000E-07
 3.80000E-07 3.60000E-07 3.40000E-07 3.20000E-07 3.00000E-07 2.80000E-07
 2.70000E-07 2.55000E-07 2.40000E-07 2.30000E-07 2.20000E-07 2.10000E-07
 2.00000E-07 1.90000E-07 1.80000E-07 1.70000E-07 1.60000E-07 1.50000E-07
 1.42500E-07 1.35000E-07 1.27500E-07 1.20000E-07 1.15000E-07 1.10000E-07
 1.05000E-07 1.00000E-07 9.60000E-08 9.20000E-08 8.80000E-08 8.40000E-08
 8.00000E-08 7.60000E-08 7.20000E-08 6.90000E-08 6.60000E-08 6.30000E-08
 6.00000E-08 5.75000E-08 5.50000E-08 5.25000E-08 5.00000E-08 4.75000E-08
 4.50000E-08 4.25000E-08 4.00000E-08 3.80000E-08 3.60000E-08 3.40000E-08
 3.20000E-08 3.00000E-08 2.80000E-08 2.70000E-08 2.55000E-08 2.40000E-08
 2.30000E-08 2.20000E-08 2.10000E-08 2.00000E-08 1.90000E-08 1.80000E-08
 1.70000E-08 1.60000E-08 1.50000E-08 1.42500E-08 1.35000E-08 1.27500E-08
 1.20000E-08 1.15000E-08 1.10000E-08 1.05000E-08 1.00000E-08 9.60000E-09
 9.20000E-09 8.80000E-09 8.40000E-09 8.00000E-09 7.60000E-09 7.20000E-09
 6.90000E-09 6.60000E-09 6.30000E-09 6.00000E-09 5.75000E-09 5.50000E-09
 5.25000E-09 5.00000E-09 4.75000E-09 4.50000E-09 4.25000E-09 4.00000E-09
 3.80000E-09 3.60000E-09 3.40000E-09 3.20000E-09 3.00000E-09 2.80000E-09
 2.70000E-09 2.55000E-09 2.40000E-09 2.30000E-09 2.20000E-09 2.10000E-09
 2.00000E-09 1.90000E-09 1.80000E-09 1.70000E-09 1.60000E-09 1.50000E-09
 1.42500E-09 1.35000E-09 1.27500E-09 1.20000E-09 1.15000E-09 1.10000E-09
 1.05000E-09 1.00000E-09 9.60000E-10 9.20000E-10 8.80000E-10 8.40000E-10
 8.00000E-10 7.60000E-10 7.20000E-10 6.90000E-10 6.60000E-10 6.30000E-10
 6.00000E-10 5.75000E-10 5.50000E-10 5.25000E-10 5.00000E-10 4.75000E-10
 4.50000E-10 4.25000E-10 4.00000E-10 3.80000E-10 3.60000E-10 3.40000E-10
 3.20000E-10 3.00000E-10 2.80000E-10 2.70000E-10 2.55000E-10 2.40000E-10
 2.30000E-10 2.20000E-10 2.10000E-10 2.00000E-10 1.90000E-10 1.80000E-10
 1.70000E-10 1.60000E-10 1.50000E-10 1.42500E-10 1.35000E-10 1.27500E-10
 1.20000E-10 1.15000E-10 1.10000E-10 1.05000E-10 1.00000E-10
 0.00000E+00 0.00000E+00 8.81000E-13 0.00000E+00 0.00000E+00 8.52300E-14
 1.11300E-11 0.00000E+00 0.00000E+00 0.00000E+00 0.00000E+00 0.00000E+00
 4.23300E-11 6.77500E-12 8.13200E-12 9.33300E-12 5.61300E-13 1.77900E-11
 0.00000E+00 9.37900E-12 0.00000E+00 0.00000E+00 0.00000E+00 1.44300E-11
 9.40300E-12 3.84300E-11 2.87300E-11 9.11100E-12 2.03800E-11 1.14100E-11
 3.67300E-11 3.87100E-11 2.92600E-13 3.66100E-11 7.64600E-11 1.03700E-11
 3.97300E-11 4.60000E-12 1.89700E-11 7.96900E-11 6.10200E-11 3.76200E-11
 5.27400E-11 7.28900E-11 1.49500E-10 7.00500E-11 1.52400E-10 5.72400E-11
 4.39800E-11 9.48300E-11 1.56600E-10 1.62100E-10 1.65500E-10 1.46100E-10
 1.59600E-10 2.01500E-10 2.74600E-10 2.19600E-10 3.64600E-10 3.11100E-10
 2.62300E-10 3.51100E-10 3.60400E-10 2.71700E-10 4.28200E-10 5.10200E-10
 3.40600E-10 4.13500E-10 5.19700E-10 6.14600E-10 7.19900E-10 8.37800E-10
 8.67600E-10 8.98500E-10 9.41500E-10 1.07800E-09 1.08000E-09 1.10300E-09
 1.15500E-09 1.67100E-09 1.39800E-09 1.41600E-09 1.54800E-09 1.48900E-09
 1.72200E-09 2.23600E-09 2.47900E-09 2.70500E-09 2.42300E-09 2.56500E-09
 3.21600E-09 3.38800E-09 3.12200E-09 4.02700E-09 4.14100E-09 4.37700E-09
 5.01600E-09 5.32600E-09 5.13400E-09 6.05500E-09 6.38200E-09 6.41400E-09
 7.03700E-09 7.83700E-09 8.56900E-09 9.78200E-09 9.56400E-09 1.09400E-08
 1.26800E-08 1.25400E-08 1.44000E-08 1.48000E-08 1.46000E-08 1.63300E-08
 1.75900E-08 1.90200E-08 1.87900E-08 2.14800E-08 2.47400E-08 2.72900E-08
 2.85400E-08 2.92500E-08 3.09300E-08 3.50000E-08 3.77700E-08 4.01400E-08
 4.30300E-08 4.57900E-08 5.05600E-08 5.56000E-08 6.00900E-08 6.31300E-08
 6.89000E-08 7.78000E-08 8.49100E-08 8.75400E-08 9.27500E-08 1.02200E-07
 1.07800E-07 1.10900E-07 1.19000E-07 1.27100E-07 1.35100E-07 1.40500E-07
 1.59900E-07 1.75900E-07 1.82800E-07 2.06100E-07 1.96100E-07 2.32100E-07
 2.55200E-07 2.55000E-07 2.96100E-07 2.99300E-07 3.03400E-07 3.12500E-07
 3.15100E-07 3.90300E-07 4.22400E-07 4.45300E-07 4.45100E-07 4.61300E-07
 4.54100E-07 4.97200E-07 5.39300E-07 5.79400E-07 6.33000E-07 7.00300E-07
 8.36700E-07 8.90400E-07 9.17600E-07 9.91800E-07 1.09600E-06 1.22200E-06
 1.25600E-06 1.37100E-06 1.50500E-06 1.43300E-06 1.44700E-06 1.47400E-06
 1.50400E-06 1.66400E-06 1.86600E-06 1.91200E-06 2.06400E-06 2.28600E-06
 2.23300E-06 2.58700E-06 2.68500E-06 2.51300E-06 9.87200E-07 1.17800E-06
 1.31900E-06 1.45000E-06 1.72200E-06 1.80200E-06 1.89100E-06 1.40800E-06
 1.39900E-06 1.35500E-06 1.46300E-06 1.20600E-06 1.22000E-06 1.21300E-06
 1.30900E-06 1.25700E-06 1.13400E-06 9.44100E-07 1.13900E-06 1.06100E-06
 1.01900E-06 1.29700E-06 1.36900E-06 1.32000E-06 1.32700E-06 7.85300E-07
 1.17400E-06 1.12800E-06 7.33600E-07 7.21900E-07 7.19200E-07 7.20600E-07
 8.70400E-07 8.80400E-07 8.49400E-07 7.89900E-07 7.61500E-07 6.29800E-07
 7.94900E-07 9.43500E-07 8.03200E-07 4.98700E-07 5.80500E-07 5.88800E-07
 5.67600E-07 4.28300E-07 3.94900E-07 3.43700E-07 3.85500E-07 5.57800E-07
 6.77300E-07 6.93600E-07 5.03200E-07 4.87500E-07 4.92300E-07 5.02100E-07
 4.17600E-07 4.37900E-07 4.41900E-07 4.59300E-07 4.73600E-07 4.90000E-07
 5.02100E-07 4.99800E-07 3.94800E-07 3.14400E-07 2.65200E-07 5.37900E-07
 7.14700E-07 7.07800E-07 3.34600E-07 5.09000E-07 5.14700E-07 3.48000E-07
 3.67900E-07 3.73100E-07 3.92500E-07 4.02400E-07 4.31200E-07 4.33400E-07
 4.94700E-07 4.95800E-07 3.97500E-07 4.09300E-07 4.39800E-07 4.57400E-07
 3.21400E-07 3.33800E-07 3.44700E-07 3.61100E-07 3.00000E-07 3.16000E-07
 3.23500E-07 3.39000E-07 3.54300E-07 3.74000E-07 3.89800E-07 3.03200E-07
 3.23700E-07 3.41100E-07 3.47300E-07 2.40400E-07 3.30300E-07 3.40900E-07
 3.58100E-07 3.69100E-07 3.82600E-07 4.05600E-07 4.22200E-07 3.47600E-07
 3.91100E-07 4.04000E-07 4.20800E-07 4.48200E-07 4.76600E-07 2.37800E-07
 3.97300E-07 4.19600E-07 2.96500E-07 2.97400E-07 3.23200E-07 3.31800E-07
 3.51600E-07 3.65500E-07 3.84900E-07 4.06300E-07 4.29200E-07 3.56800E-07
 3.62700E-07 3.88900E-07 4.02700E-07 2.83100E-07 2.97700E-07 3.08100E-07
 3.29600E-07 2.72200E-07 2.87200E-07 2.98400E-07 3.08500E-07 3.25800E-07
 3.43600E-07 3.57700E-07 2.76900E-07 2.84000E-07 3.14700E-07 3.21700E-07
 2.78600E-07 2.94000E-07 3.03400E-07 3.18000E-07 3.34800E-07 3.51000E-07
 3.76000E-07 3.91000E-07 3.31100E-07 3.50000E-07 3.63300E-07 3.84200E-07
 4.21100E-07 4.43700E-07 2.28900E-07 3.66000E-07 3.85800E-07 2.67200E-07
 2.83300E-07 2.91100E-07 3.05000E-07 3.09100E-07 3.50300E-07 3.63800E-07
 3.75500E-07 4.07200E-07 3.20700E-07 3.38800E-07 3.60200E-07 3.79600E-07
 2.55900E-07 2.80400E-07 2.89500E-07 2.90000E-07 2.54100E-07 2.62700E-07
 2.67300E-07 2.88300E-07 2.87700E-07 3.17800E-07 3.29900E-07 2.57100E-07
 2.51100E-07 2.76900E-07 2.93500E-07 2.58800E-07 2.65600E-07 2.79400E-07
 2.90300E-07 3.11900E-07 3.31700E-07 3.40800E-07 3.61400E-07 2.97900E-07
 2.72800E-07 3.17400E-07 3.46900E-07 3.72300E-07 4.03400E-07 2.13400E-07
 3.33300E-07 3.50300E-07 2.42500E-07 2.54500E-07 2.41100E-07 2.36000E-07
 2.71300E-07 2.97700E-07 3.18000E-07 3.34900E-07 3.57500E-07 2.91700E-07
 3.00000E-07 3.21600E-07 3.29600E-07 2.32800E-07 2.48100E-07 2.61800E-07
 2.68200E-07 2.23500E-07 2.35200E-07 2.39100E-07 2.44900E-07 2.67100E-07
 2.78200E-07 2.89100E-07 2.10200E-07 1.82200E-07 1.98000E-07 2.39800E-07
 2.14000E-07 2.27300E-07 2.41700E-07 2.50900E-07 2.64000E-07 2.83400E-07
 3.02500E-07 3.17800E-07 2.71800E-07 2.85800E-07 2.95900E-07 3.21000E-07
 3.41500E-07 3.64800E-07 1.91500E-07 3.07600E-07 3.22900E-07 2.25600E-07
 2.35200E-07 2.46700E-07 2.57900E-07 2.75200E-07 2.90400E-07 3.02500E-07
 3.29600E-07 3.46200E-07 2.79100E-07 2.94000E-07 3.08400E-07 3.33500E-07
 2.30000E-07 2.41400E-07 2.46900E-07 2.66600E-07 2.22900E-07 2.34600E-07
 2.44900E-07 2.56200E-07 2.68100E-07 2.87300E-07 3.05100E-07 2.38800E-07
 2.54200E-07 2.67600E-07 2.79400E-07 2.43400E-07 2.53200E-07 2.68600E-07
 2.83000E-07 2.98300E-07 3.10400E-07 3.31400E-07 3.51900E-07 2.97900E-07
 3.14400E-07 3.34000E-07 3.52500E-07 3.71200E-07 4.02600E-07 2.13500E-07
 3.41000E-07 3.76600E-07 2.67400E-07 2.83400E-07 3.07300E-07 3.33300E-07
 3.63300E-07 4.04800E-07 4.50200E-07 5.03600E-07 5.67600E-07 4.84900E-07
 5.54200E-07 6.20100E-07 7.13400E-07 5.43400E-07 5.61400E-07 6.23000E-07
 6.85100E-07 6.07300E-07 6.61200E-07 7.26600E-07 7.70500E-07 8.01700E-07
 8.78100E-07 9.57000E-07 7.86100E-07 7.94600E-07 8.45200E-07 9.12000E-07
 7.72300E-07 8.23500E-07 8.57600E-07 8.63800E-07 9.33200E-07 9.35300E-07
 9.72100E-07 1.00100E-06 8.22100E-07 8.43900E-07 8.31600E-07 8.33400E-07
 8.54100E-07 8.53000E-07 4.11500E-07 6.47500E-07 6.40400E-07 4.15400E-07
 3.99400E-07 4.40000E-07 3.95600E-07 4.03000E-07 3.93500E-07 3.68700E-07
 3.96500E-07 3.59000E-07 2.60400E-07 2.61300E-07 2.65600E-07 2.46300E-07
 1.54300E-07 1.49900E-07 1.48000E-07 1.67700E-07 1.01700E-07 1.00100E-07
 9.60300E-08 1.15300E-07 1.08200E-07 1.00400E-07 9.70300E-08 7.18200E-08
 7.11100E-08 7.53300E-08 7.25000E-08 4.35800E-08 4.06200E-08 4.04200E-08
 3.77000E-08 3.62200E-08 3.55100E-08 4.14500E-08 3.99700E-08 2.90300E-08
 2.77100E-08 2.60900E-08 2.56100E-08 2.53100E-08 2.67700E-08 1.45300E-08
 1.20700E-08 1.18700E-08 6.82000E-09 7.18300E-09 6.43600E-09 6.79700E-09
 5.43000E-09 5.62900E-09 5.76100E-09 5.71100E-09 5.03200E-09 4.61300E-09
 4.24300E-09 4.03500E-09 3.97600E-09 2.57800E-09 2.72900E-09 2.41500E-09
 2.59700E-09 1.84200E-09 1.81200E-09 1.89100E-09 1.69500E-09 2.92100E-09
 8.47500E-10 9.53800E-10 6.87200E-10 4.75600E-10 5.80200E-10 4.11700E-10
 4.91500E-10 3.60500E-10 3.97700E-10 3.19800E-10 2.40700E-10 2.34500E-10
 3.11300E-10 2.68000E-10 2.81700E-10 2.68100E-10 2.13000E-10 2.05600E-10
 1.39500E-10 1.73600E-10 6.72300E-11 8.98700E-11 7.70400E-11 8.14600E-11
 4.24000E-11 3.99400E-12 5.20000E-11 4.49000E-11 2.95800E-11 4.32500E-11
 5.09700E-11 5.45500E-11 8.04300E-12 2.74000E-11 3.38100E-11 3.41400E-11
 2.31100E-13 3.67400E-12 1.84200E-11 8.95400E-12
                   0
                   0
