  12   5
  16
   0   0   0   0
-238   0
 2.00000E+01 1.73330E+01 1.56830E+01 1.45500E+01 1.38400E+01 1.28400E+01
 1.00000E+01 8.18730E+00 6.43400E+00 4.80000E+00 4.30400E+00 3.00000E+00
 2.47900E+00 2.35400E+00 1.85000E+00 1.50000E+00 1.40000E+00 1.35600E+00
 1.31700E+00 1.25000E+00 1.20000E+00 1.10000E+00 1.01000E+00 9.20000E-01
 9.00000E-01 8.75000E-01 8.61100E-01 8.20000E-01 7.50000E-01 6.79000E-01
 6.70000E-01 6.00000E-01 5.73000E-01 5.50000E-01 4.99520E-01 4.70000E-01
 4.40000E-01 4.20000E-01 4.00000E-01 3.30000E-01 2.70000E-01 2.00000E-01
 1.50000E-01 1.28300E-01 1.00000E-01 8.50000E-02 8.20000E-02 7.50000E-02
 7.30000E-02 6.00000E-02 5.20000E-02 5.00000E-02 4.50000E-02 3.00000E-02
 2.50000E-02 1.70000E-02 1.30000E-02 9.50000E-03 8.03000E-03 6.00000E-03
 3.90000E-03 3.74000E-03 3.00000E-03 2.58000E-03 2.29000E-03 2.20000E-03
 1.80000E-03 1.55000E-03 1.50000E-03 1.15000E-03 9.50000E-04 6.83000E-04
 6.70000E-04 5.50000E-04 3.05000E-04 2.85000E-04 2.40000E-04 2.10000E-04
 2.07500E-04 1.92500E-04 1.86000E-04 1.22000E-04 1.19000E-04 1.15000E-04
 1.08000E-04 1.00000E-04 9.00000E-05 8.20000E-05 8.00000E-05 7.60000E-05
 7.20000E-05 6.75000E-05 6.50000E-05 6.10000E-05 5.90000E-05 5.34000E-05
 5.20000E-05 5.06000E-05 4.92000E-05 4.83000E-05 4.70000E-05 4.52000E-05
 4.40000E-05 4.24000E-05 4.10000E-05 3.96000E-05 3.91000E-05 3.80000E-05
 3.70000E-05 3.55000E-05 3.46000E-05 3.37500E-05 3.32500E-05 3.17500E-05
 3.12500E-05 3.00000E-05 2.75000E-05 2.50000E-05 2.25000E-05 2.10000E-05
 2.00000E-05 1.90000E-05 1.85000E-05 1.70000E-05 1.60000E-05 1.51000E-05
 1.44000E-05 1.37500E-05 1.29000E-05 1.19000E-05 1.15000E-05 1.00000E-05
 9.10000E-06 8.10000E-06 7.15000E-06 7.00000E-06 6.75000E-06 6.50000E-06
 6.25000E-06 6.00000E-06 5.40000E-06 5.00000E-06 4.75000E-06 4.00000E-06
 3.73000E-06 3.50000E-06 3.15000E-06 3.05000E-06 3.00000E-06 2.97000E-06
 2.87000E-06 2.77000E-06 2.67000E-06 2.57000E-06 2.47000E-06 2.38000E-06
 2.30000E-06 2.21000E-06 2.12000E-06 2.00000E-06 1.94000E-06 1.86000E-06
 1.77000E-06 1.68000E-06 1.59000E-06 1.50000E-06 1.45000E-06 1.40000E-06
 1.35000E-06 1.30000E-06 1.25000E-06 1.22500E-06 1.20000E-06 1.17500E-06
 1.15000E-06 1.14000E-06 1.13000E-06 1.12000E-06 1.11000E-06 1.10000E-06
 1.09000E-06 1.08000E-06 1.07000E-06 1.06000E-06 1.05000E-06 1.04000E-06
 1.03000E-06 1.02000E-06 1.01000E-06 1.00000E-06 9.75000E-07 9.50000E-07
 9.25000E-07 9.00000E-07 8.50000E-07 8.00000E-07 7.50000E-07 7.00000E-07
 6.50000E-07 6.25000E-07 6.00000E-07 5.50000E-07 5.00000E-07 4.50000E-07
 4.00000E-07 3.75000E-07 3.50000E-07 3.25000E-07 3.00000E-07 2.75000E-07
 2.50000E-07 2.25000E-07 2.00000E-07 1.75000E-07 1.50000E-07 1.25000E-07
 1.00000E-07 9.00000E-08 8.00000E-08 7.00000E-08 6.00000E-08 5.00000E-08
 4.00000E-08 3.00000E-08 2.53000E-08 1.00000E-08 7.50000E-09 5.00000E-09
 4.00000E-09 3.00000E-09 2.50000E-09 2.00000E-09 1.50000E-09 1.20000E-09
 1.00000E-09 7.50000E-10 5.00000E-10 1.00000E-10 1.00000E-11
 4.32950E-12 2.23870E-11 3.53330E-11 4.89320E-11 1.61080E-10 1.92830E-09
 5.82100E-09 1.94740E-08 5.77870E-08 3.30810E-08 1.12760E-07 6.33520E-08
 3.23740E-08 2.14060E-07 2.73980E-07 9.30580E-08 4.22890E-08 3.99370E-08
 6.08700E-08 5.05700E-08 9.86100E-08 1.02170E-07 1.03660E-07 2.60320E-08
 3.19120E-08 1.75180E-08 5.49410E-08 9.84840E-08 1.26420E-07 1.63420E-08
 9.92290E-08 4.53150E-08 4.20080E-08 1.09160E-07 7.32930E-08 7.31410E-08
 5.26140E-08 6.01530E-08 2.41180E-07 2.27420E-07 3.20750E-07 2.74640E-07
 1.69590E-07 2.42940E-07 9.09990E-08 2.26430E-08 9.91980E-08 3.01990E-08
 2.03000E-07 1.16190E-07 3.23690E-08 8.51260E-08 2.74390E-07 1.70760E-07
 3.05000E-07 2.07070E-07 2.37700E-07 1.26990E-07 2.31380E-07 3.23540E-07
 3.46250E-08 1.75040E-07 1.08350E-07 9.46460E-08 2.89960E-08 1.51500E-07
 1.25430E-07 2.58590E-08 2.15920E-07 1.57350E-07 2.68100E-07 1.46190E-08
 1.53320E-07 4.92270E-07 5.65820E-08 1.39870E-07 1.06840E-07 1.00800E-08
 6.19880E-08 2.72130E-08 3.56330E-07 2.13490E-08 2.75670E-08 5.45950E-08
 6.81610E-08 9.07920E-08 7.96240E-08 2.02700E-08 4.29050E-08 4.70770E-08
 5.19860E-08 3.24920E-08 5.22200E-08 2.64760E-08 8.46370E-08 2.46670E-08
 2.50920E-08 1.79430E-08 1.67310E-08 2.37130E-08 3.36700E-08 2.50090E-08
 3.39120E-08 2.92850E-08 3.19820E-08 1.09160E-08 2.48980E-08 2.15220E-08
 3.79680E-08 2.17070E-08 2.06890E-08 1.31070E-08 4.33730E-08 1.41680E-08
 3.17880E-08 8.06880E-08 7.92010E-08 8.69810E-08 5.67070E-08 4.04160E-08
 4.75660E-08 2.42410E-08 7.62960E-08 5.13570E-08 5.28570E-08 4.38350E-08
 4.25220E-08 6.09440E-08 6.67920E-08 3.32970E-08 1.06580E-07 8.31650E-08
 1.06680E-07 1.08550E-07 2.13650E-08 3.38560E-08 3.55100E-08 3.30810E-08
 3.90100E-08 7.79110E-08 7.84080E-08 4.67540E-08 1.63150E-07 4.90340E-08
 6.21590E-08 9.92560E-08 3.20060E-08 1.69080E-08 1.04340E-08 3.39110E-08
 3.49700E-08 3.73390E-08 3.69030E-08 3.79780E-08 3.69170E-08 3.36510E-08
 4.05310E-08 4.12770E-08 5.66440E-08 2.53040E-08 3.91320E-08 4.66020E-08
 5.40120E-08 5.15920E-08 3.74000E-08 9.58740E-09 2.09660E-08 2.67960E-08
 2.15490E-08 3.13270E-08 2.05260E-08 2.04180E-08 2.06320E-08 2.23640E-08
 8.78080E-09 9.83970E-09 7.71370E-09 9.54890E-09 9.76570E-09 9.27310E-09
 9.77790E-09 9.11840E-09 9.84980E-09 1.02050E-08 1.01420E-08 9.81750E-09
 1.02180E-08 9.74210E-09 9.90890E-09 2.71180E-08 2.69030E-08 2.68100E-08
 2.88680E-08 6.01140E-08 6.13880E-08 6.63520E-08 7.26910E-08 7.81840E-08
 4.20050E-08 4.08340E-08 8.32520E-08 5.63540E-08 4.26660E-08 1.01170E-07
 6.88880E-08 7.85480E-08 8.36750E-08 9.69960E-08 1.10980E-07 1.31170E-07
 1.73660E-07 2.50630E-07 3.82070E-07 6.74520E-07 1.27280E-06 2.45810E-06
 1.55210E-06 1.92980E-06 2.42280E-06 3.01810E-06 3.79630E-06 4.31630E-06
 4.74360E-06 2.25840E-06 6.03170E-06 5.89520E-07 4.44270E-07 1.07540E-07
 9.34450E-08 4.16820E-08 2.80070E-08 1.94940E-08 8.75260E-09 3.16550E-09
 5.32820E-09 8.08900E-10 9.87970E-10 0.00000E+00
                   0
                   0
